logs/drand/max/drand-05-075-0.lp
\ LP format - for model browsing. Use MPS format to capture full model detail.
Maximize
  x0,1_3 + x0,1_29 + x0,1_32 + x0,1_49 + x0,1_62 + x0,2_3 + x0,2_29
   + x0,2_32 + x0,2_49 + x0,2_62 + x0,3_3 + x0,3_29 + x0,3_32 + x0,3_49
   + x0,3_62 + x0,4_3 + x0,4_29 + x0,4_32 + x0,4_49 + x0,4_62 + x1,2_3
   + x1,2_29 + x1,2_32 + x1,2_49 + x1,2_62 + x1,3_3 + x1,3_29 + x1,3_32
   + x1,3_49 + x1,3_62 + x1,4_3 + x1,4_29 + x1,4_32 + x1,4_49 + x1,4_62
   + x2,3_3 + x2,3_29 + x2,3_32 + x2,3_49 + x2,3_62 + x2,4_3 + x2,4_29
   + x2,4_32 + x2,4_49 + x2,4_62 + x3,4_3 + x3,4_29 + x3,4_32 + x3,4_49
   + x3,4_62
Subject To
 R0: x0,1_3 + x0,2_3 + x0,3_3 + x0,4_3 + x1,2_3 + x1,3_3 + x1,4_3 + x2,3_3
   + x2,4_3 + x3,4_3 <= 1
 R1: x0,1_29 + x0,2_29 + x0,3_29 + x0,4_29 + x1,2_29 + x1,3_29 + x1,4_29
   + x2,3_29 + x2,4_29 + x3,4_29 <= 1
 R2: x0,1_32 + x0,2_32 + x0,3_32 + x0,4_32 + x1,2_32 + x1,3_32 + x1,4_32
   + x2,3_32 + x2,4_32 + x3,4_32 <= 1
 R3: x0,1_49 + x0,2_49 + x0,3_49 + x0,4_49 + x1,2_49 + x1,3_49 + x1,4_49
   + x2,3_49 + x2,4_49 + x3,4_49 <= 1
 R4: x0,1_62 + x0,2_62 + x0,3_62 + x0,4_62 + x1,2_62 + x1,3_62 + x1,4_62
   + x2,3_62 + x2,4_62 + x3,4_62 <= 1
 R5: x0,1_3 + x0,1_29 + x0,1_32 + x0,1_49 + x0,1_62 <= 1
 R6: x0,2_3 + x0,2_29 + x0,2_32 + x0,2_49 + x0,2_62 <= 1
 R7: x0,3_3 + x0,3_29 + x0,3_32 + x0,3_49 + x0,3_62 <= 1
 R8: x0,4_3 + x0,4_29 + x0,4_32 + x0,4_49 + x0,4_62 <= 1
 R9: x1,2_3 + x1,2_29 + x1,2_32 + x1,2_49 + x1,2_62 <= 1
 R10: x1,3_3 + x1,3_29 + x1,3_32 + x1,3_49 + x1,3_62 <= 1
 R11: x1,4_3 + x1,4_29 + x1,4_32 + x1,4_49 + x1,4_62 <= 1
 R12: x2,3_3 + x2,3_29 + x2,3_32 + x2,3_49 + x2,3_62 <= 1
 R13: x2,4_3 + x2,4_29 + x2,4_32 + x2,4_49 + x2,4_62 <= 1
 R14: x3,4_3 + x3,4_29 + x3,4_32 + x3,4_49 + x3,4_62 <= 1
 R15: p0 - p1 <= -1
 R16: - 3 x0,1_3 - p0 + p1 >= 0
 R17: 175 x0,1_3 - p0 + p1 <= 178
 R18: - 29 x0,1_29 - p0 + p1 >= 0
 R19: 175 x0,1_29 - p0 + p1 <= 204
 R20: - 32 x0,1_32 - p0 + p1 >= 0
 R21: 175 x0,1_32 - p0 + p1 <= 207
 R22: - 49 x0,1_49 - p0 + p1 >= 0
 R23: 175 x0,1_49 - p0 + p1 <= 224
 R24: - 62 x0,1_62 - p0 + p1 >= 0
 R25: 175 x0,1_62 - p0 + p1 <= 237
 R26: p0 - p2 <= -1
 R27: - 3 x0,2_3 - p0 + p2 >= 0
 R28: 175 x0,2_3 - p0 + p2 <= 178
 R29: - 29 x0,2_29 - p0 + p2 >= 0
 R30: 175 x0,2_29 - p0 + p2 <= 204
 R31: - 32 x0,2_32 - p0 + p2 >= 0
 R32: 175 x0,2_32 - p0 + p2 <= 207
 R33: - 49 x0,2_49 - p0 + p2 >= 0
 R34: 175 x0,2_49 - p0 + p2 <= 224
 R35: - 62 x0,2_62 - p0 + p2 >= 0
 R36: 175 x0,2_62 - p0 + p2 <= 237
 R37: p0 - p3 <= -1
 R38: - 3 x0,3_3 - p0 + p3 >= 0
 R39: 175 x0,3_3 - p0 + p3 <= 178
 R40: - 29 x0,3_29 - p0 + p3 >= 0
 R41: 175 x0,3_29 - p0 + p3 <= 204
 R42: - 32 x0,3_32 - p0 + p3 >= 0
 R43: 175 x0,3_32 - p0 + p3 <= 207
 R44: - 49 x0,3_49 - p0 + p3 >= 0
 R45: 175 x0,3_49 - p0 + p3 <= 224
 R46: - 62 x0,3_62 - p0 + p3 >= 0
 R47: 175 x0,3_62 - p0 + p3 <= 237
 R48: p0 - p4 <= -1
 R49: - 3 x0,4_3 - p0 + p4 >= 0
 R50: 175 x0,4_3 - p0 + p4 <= 178
 R51: - 29 x0,4_29 - p0 + p4 >= 0
 R52: 175 x0,4_29 - p0 + p4 <= 204
 R53: - 32 x0,4_32 - p0 + p4 >= 0
 R54: 175 x0,4_32 - p0 + p4 <= 207
 R55: - 49 x0,4_49 - p0 + p4 >= 0
 R56: 175 x0,4_49 - p0 + p4 <= 224
 R57: - 62 x0,4_62 - p0 + p4 >= 0
 R58: 175 x0,4_62 - p0 + p4 <= 237
 R59: p1 - p2 <= -1
 R60: - 3 x1,2_3 - p1 + p2 >= 0
 R61: 175 x1,2_3 - p1 + p2 <= 178
 R62: - 29 x1,2_29 - p1 + p2 >= 0
 R63: 175 x1,2_29 - p1 + p2 <= 204
 R64: - 32 x1,2_32 - p1 + p2 >= 0
 R65: 175 x1,2_32 - p1 + p2 <= 207
 R66: - 49 x1,2_49 - p1 + p2 >= 0
 R67: 175 x1,2_49 - p1 + p2 <= 224
 R68: - 62 x1,2_62 - p1 + p2 >= 0
 R69: 175 x1,2_62 - p1 + p2 <= 237
 R70: p1 - p3 <= -1
 R71: - 3 x1,3_3 - p1 + p3 >= 0
 R72: 175 x1,3_3 - p1 + p3 <= 178
 R73: - 29 x1,3_29 - p1 + p3 >= 0
 R74: 175 x1,3_29 - p1 + p3 <= 204
 R75: - 32 x1,3_32 - p1 + p3 >= 0
 R76: 175 x1,3_32 - p1 + p3 <= 207
 R77: - 49 x1,3_49 - p1 + p3 >= 0
 R78: 175 x1,3_49 - p1 + p3 <= 224
 R79: - 62 x1,3_62 - p1 + p3 >= 0
 R80: 175 x1,3_62 - p1 + p3 <= 237
 R81: p1 - p4 <= -1
 R82: - 3 x1,4_3 - p1 + p4 >= 0
 R83: 175 x1,4_3 - p1 + p4 <= 178
 R84: - 29 x1,4_29 - p1 + p4 >= 0
 R85: 175 x1,4_29 - p1 + p4 <= 204
 R86: - 32 x1,4_32 - p1 + p4 >= 0
 R87: 175 x1,4_32 - p1 + p4 <= 207
 R88: - 49 x1,4_49 - p1 + p4 >= 0
 R89: 175 x1,4_49 - p1 + p4 <= 224
 R90: - 62 x1,4_62 - p1 + p4 >= 0
 R91: 175 x1,4_62 - p1 + p4 <= 237
 R92: p2 - p3 <= -1
 R93: - 3 x2,3_3 - p2 + p3 >= 0
 R94: 175 x2,3_3 - p2 + p3 <= 178
 R95: - 29 x2,3_29 - p2 + p3 >= 0
 R96: 175 x2,3_29 - p2 + p3 <= 204
 R97: - 32 x2,3_32 - p2 + p3 >= 0
 R98: 175 x2,3_32 - p2 + p3 <= 207
 R99: - 49 x2,3_49 - p2 + p3 >= 0
 R100: 175 x2,3_49 - p2 + p3 <= 224
 R101: - 62 x2,3_62 - p2 + p3 >= 0
 R102: 175 x2,3_62 - p2 + p3 <= 237
 R103: p2 - p4 <= -1
 R104: - 3 x2,4_3 - p2 + p4 >= 0
 R105: 175 x2,4_3 - p2 + p4 <= 178
 R106: - 29 x2,4_29 - p2 + p4 >= 0
 R107: 175 x2,4_29 - p2 + p4 <= 204
 R108: - 32 x2,4_32 - p2 + p4 >= 0
 R109: 175 x2,4_32 - p2 + p4 <= 207
 R110: - 49 x2,4_49 - p2 + p4 >= 0
 R111: 175 x2,4_49 - p2 + p4 <= 224
 R112: - 62 x2,4_62 - p2 + p4 >= 0
 R113: 175 x2,4_62 - p2 + p4 <= 237
 R114: p3 - p4 <= -1
 R115: - 3 x3,4_3 - p3 + p4 >= 0
 R116: 175 x3,4_3 - p3 + p4 <= 178
 R117: - 29 x3,4_29 - p3 + p4 >= 0
 R118: 175 x3,4_29 - p3 + p4 <= 204
 R119: - 32 x3,4_32 - p3 + p4 >= 0
 R120: 175 x3,4_32 - p3 + p4 <= 207
 R121: - 49 x3,4_49 - p3 + p4 >= 0
 R122: 175 x3,4_49 - p3 + p4 <= 224
 R123: - 62 x3,4_62 - p3 + p4 >= 0
 R124: 175 x3,4_62 - p3 + p4 <= 237
Bounds
Binaries
 x0,1_3 x0,1_29 x0,1_32 x0,1_49 x0,1_62 x0,2_3 x0,2_29 x0,2_32 x0,2_49
 x0,2_62 x0,3_3 x0,3_29 x0,3_32 x0,3_49 x0,3_62 x0,4_3 x0,4_29 x0,4_32
 x0,4_49 x0,4_62 x1,2_3 x1,2_29 x1,2_32 x1,2_49 x1,2_62 x1,3_3 x1,3_29
 x1,3_32 x1,3_49 x1,3_62 x1,4_3 x1,4_29 x1,4_32 x1,4_49 x1,4_62 x2,3_3
 x2,3_29 x2,3_32 x2,3_49 x2,3_62 x2,4_3 x2,4_29 x2,4_32 x2,4_49 x2,4_62
 x3,4_3 x3,4_29 x3,4_32 x3,4_49 x3,4_62
Generals
 p0 p1 p2 p3 p4
End
